
Gurobi 9.5.1 (linux64) logging started Thu Mar 31 16:06:21 2022

Set parameter LogFile to value "../results/logs/log_2022_03_31_16_06.csv_4_250.log"
Gurobi Optimizer version 9.5.1 build v9.5.1rc2 (linux64)
Thread count: 8 physical cores, 8 logical processors, using up to 8 threads
Optimize a model with 46267 rows, 46266 columns and 466288 nonzeros
Model fingerprint: 0x3a44880f
Coefficient statistics:
  Matrix range     [1e+00, 4e+00]
  Objective range  [1e+00, 1e+00]
  Bounds range     [1e+00, 1e+00]
  RHS range        [1e+00, 2e+02]

Concurrent LP optimizer: primal simplex, dual simplex, and barrier
Showing barrier log only...

Presolve time: 0.18s
Presolved: 46267 rows, 46266 columns, 466288 nonzeros

Ordering time: 1.12s

Barrier performed 0 iterations in 1.65 seconds (1.04 work units)
Barrier solve interrupted - model solved by another algorithm


Solved with primal simplex
Solved in 30786 iterations and 1.65 seconds (1.27 work units)
Optimal objective  1.813134956e+04

Gurobi 9.5.1 (linux64) logging started Thu Mar 31 16:06:24 2022

Set parameter LogFile to value "../results/logs/log_2022_03_31_16_06.csv_4_250.log"
Gurobi Optimizer version 9.5.1 build v9.5.1rc2 (linux64)
Thread count: 8 physical cores, 8 logical processors, using up to 8 threads
Optimize a model with 24013 rows, 24012 columns and 521980 nonzeros
Model fingerprint: 0x6f8894a0
Coefficient statistics:
  Matrix range     [1e+00, 4e+00]
  Objective range  [1e+00, 1e+00]
  Bounds range     [1e+00, 1e+00]
  RHS range        [1e+00, 2e+02]

Concurrent LP optimizer: primal simplex, dual simplex, and barrier
Showing barrier log only...

Presolve time: 0.15s
Presolved: 24013 rows, 24012 columns, 521980 nonzeros

Ordering time: 0.19s

Barrier performed 0 iterations in 0.52 seconds (0.49 work units)
Barrier solve interrupted - model solved by another algorithm


Solved with dual simplex
Solved in 5521 iterations and 0.53 seconds (0.66 work units)
Optimal objective  9.321444048e+03

Gurobi 9.5.1 (linux64) logging started Thu Mar 31 16:10:15 2022

Set parameter LogFile to value "../results/logs/log_2022_03_31_16_06.csv_4_250.log"
Gurobi Optimizer version 9.5.1 build v9.5.1rc2 (linux64)
Thread count: 8 physical cores, 8 logical processors, using up to 8 threads
Optimize a model with 1751427 rows, 1751426 columns and 20791056 nonzeros
Model fingerprint: 0xdf0e2fbb
Coefficient statistics:
  Matrix range     [1e+00, 4e+00]
  Objective range  [1e+00, 1e+00]
  Bounds range     [1e+00, 1e+00]
  RHS range        [1e+00, 2e+02]

Concurrent LP optimizer: primal simplex, dual simplex, and barrier
Showing barrier log only...

Presolve removed 0 rows and 0 columns (presolve time = 12s) ...
Presolve time: 13.81s
Presolved: 1751427 rows, 1751426 columns, 20791056 nonzeros

Elapsed ordering time = 5s
Elapsed ordering time = 13s
Elapsed ordering time = 15s
Elapsed ordering time = 20s
Elapsed ordering time = 43s
Elapsed ordering time = 46s
Elapsed ordering time = 50s
Elapsed ordering time = 55s
Elapsed ordering time = 60s
Elapsed ordering time = 65s
Elapsed ordering time = 70s
Elapsed ordering time = 73s
Elapsed ordering time = 77s
Ordering time: 77.56s

Barrier performed 0 iterations in 114.49 seconds (45.41 work units)
Barrier solve interrupted - model solved by another algorithm


Solved with primal simplex
Solved in 701788 iterations and 114.56 seconds (83.23 work units)
Optimal objective  6.620869818e+05

Gurobi 9.5.1 (linux64) logging started Thu Mar 31 16:28:16 2022

Set parameter LogFile to value "../results/logs/log_2022_03_31_16_06.csv_4_250.log"
Gurobi Optimizer version 9.5.1 build v9.5.1rc2 (linux64)
Thread count: 8 physical cores, 8 logical processors, using up to 8 threads
Optimize a model with 46267 rows, 46266 columns and 466288 nonzeros
Model fingerprint: 0x65124c21
Variable types: 0 continuous, 46266 integer (46266 binary)
Coefficient statistics:
  Matrix range     [1e+00, 4e+00]
  Objective range  [1e+00, 1e+00]
  Bounds range     [1e+00, 1e+00]
  RHS range        [1e+00, 2e+02]
Found heuristic solution: objective -0.0000000
Presolve removed 17051 rows and 12188 columns
Presolve time: 1.32s
Presolved: 29216 rows, 34078 columns, 387439 nonzeros
Variable types: 0 continuous, 34078 integer (32779 binary)
Found heuristic solution: objective 830.0000000

Deterministic concurrent LP optimizer: primal and dual simplex
Showing first log only...

Concurrent spin time: 0.19s

Solved with dual simplex

Root relaxation: objective 1.434384e+04, 2959 iterations, 0.66 seconds (0.53 work units)

    Nodes    |    Current Node    |     Objective Bounds      |     Work
 Expl Unexpl |  Obj  Depth IntInf | Incumbent    BestBd   Gap | It/Node Time

     0     0 14343.8364    0  862  830.00000 14343.8364  1628%     -    3s
H    0     0                    13845.000000 14343.8364  3.60%     -    3s
H    0     0                    13854.000000 14343.8364  3.54%     -    3s
H    0     0                    13930.000000 14343.8364  2.97%     -    3s
     0     0 14017.5525    0  434 13930.0000 14017.5525  0.63%     -    4s
H    0     0                    13939.000000 14017.5525  0.56%     -    4s
     0     0 14014.4833    0  394 13939.0000 14014.4833  0.54%     -    4s
     0     0 14014.4198    0  389 13939.0000 14014.4198  0.54%     -    4s
     0     0 14014.4198    0  388 13939.0000 14014.4198  0.54%     -    4s
     0     0 13954.0665    0  158 13939.0000 13954.0665  0.11%     -    5s
     0     0 13948.7500    0  155 13939.0000 13948.7500  0.07%     -    5s
     0     0 13948.1528    0  154 13939.0000 13948.1528  0.07%     -    5s
     0     0 13948.1522    0  154 13939.0000 13948.1522  0.07%     -    5s
     0     0 13943.1151    0   94 13939.0000 13943.1151  0.03%     -    5s
     0     0 13942.2755    0   79 13939.0000 13942.2755  0.02%     -    6s
     0     0 13942.2547    0   73 13939.0000 13942.2547  0.02%     -    6s
     0     0 13941.9264    0   54 13939.0000 13941.9264  0.02%     -    6s
     0     0 13941.6153    0   53 13939.0000 13941.6153  0.02%     -    7s
     0     0 13941.1136    0   51 13939.0000 13941.1136  0.02%     -    7s
     0     0 13940.6333    0   20 13939.0000 13940.6333  0.01%     -    7s
     0     0 13940.6333    0  185 13939.0000 13940.6333  0.01%     -    7s
     0     0 13940.6333    0   73 13939.0000 13940.6333  0.01%     -    7s
     0     0 13940.6333    0   58 13939.0000 13940.6333  0.01%     -    7s
     0     0 13940.6333    0   65 13939.0000 13940.6333  0.01%     -    7s
     0     0 13940.6333    0   65 13939.0000 13940.6333  0.01%     -    7s
     0     0 13940.6333    0   33 13939.0000 13940.6333  0.01%     -    7s
     0     0 13940.6131    0   26 13939.0000 13940.6131  0.01%     -    7s
     0     0 13940.6081    0   31 13939.0000 13940.6081  0.01%     -    7s
     0     0 13940.0476    0   17 13939.0000 13940.0476  0.01%     -    7s
     0     0 13940.0476    0   56 13939.0000 13940.0476  0.01%     -    7s
     0     0 13940.0476    0   27 13939.0000 13940.0476  0.01%     -    7s
     0     0     cutoff    0      13939.0000 13939.0000  0.00%     -    7s

Cutting planes:
  Gomory: 26
  Implied bound: 2
  MIR: 23
  GUB cover: 5
  Zero half: 1
  Mod-K: 2
  RLT: 3

Explored 1 nodes (7706 simplex iterations) in 7.72 seconds (5.79 work units)
Thread count was 8 (of 8 available processors)

Solution count 10: 13939 13939 13939 ... 13845

Optimal solution found (tolerance 0.00e+00)
Best objective 1.393900000000e+04, best bound 1.393900000000e+04, gap 0.0000%

Gurobi 9.5.1 (linux64) logging started Thu Mar 31 16:28:25 2022

Set parameter LogFile to value "../results/logs/log_2022_03_31_16_06.csv_4_250.log"
Gurobi Optimizer version 9.5.1 build v9.5.1rc2 (linux64)
Thread count: 8 physical cores, 8 logical processors, using up to 8 threads
Optimize a model with 24013 rows, 24012 columns and 521980 nonzeros
Model fingerprint: 0xbf92ce11
Variable types: 0 continuous, 24012 integer (24012 binary)
Coefficient statistics:
  Matrix range     [1e+00, 4e+00]
  Objective range  [1e+00, 1e+00]
  Bounds range     [1e+00, 1e+00]
  RHS range        [1e+00, 2e+02]
Found heuristic solution: objective -0.0000000
Presolve removed 9588 rows and 6652 columns
Presolve time: 1.22s
Presolved: 14425 rows, 17360 columns, 478193 nonzeros
Variable types: 0 continuous, 17360 integer (16634 binary)
Found heuristic solution: objective 4425.0000000

Deterministic concurrent LP optimizer: primal and dual simplex
Showing first log only...

Concurrent spin time: 0.10s

Solved with dual simplex

Root relaxation: objective 7.114500e+03, 1262 iterations, 0.46 seconds (0.49 work units)

    Nodes    |    Current Node    |     Objective Bounds      |     Work
 Expl Unexpl |  Obj  Depth IntInf | Incumbent    BestBd   Gap | It/Node Time

     0     0 7114.50000    0  304 4425.00000 7114.50000  60.8%     -    2s
H    0     0                    6911.0000000 7114.50000  2.94%     -    2s
H    0     0                    6919.0000000 7114.50000  2.83%     -    2s
H    0     0                    6927.0000000 7114.50000  2.71%     -    3s
H    0     0                    6961.0000000 7114.50000  2.21%     -    3s
H    0     0                    6963.0000000 7114.50000  2.18%     -    3s
H    0     0                    6965.0000000 7114.50000  2.15%     -    3s
H    0     0                    6966.0000000 7114.50000  2.13%     -    3s
H    0     0                    6969.0000000 7114.50000  2.09%     -    3s
H    0     0                    6970.0000000 7114.50000  2.07%     -    3s
H    0     0                    6977.0000000 7114.44028  1.97%     -    3s
     0     0 7000.76237    0  264 6977.00000 7000.76237  0.34%     -    3s
H    0     0                    6978.0000000 7000.76237  0.33%     -    4s
     0     0 7000.41172    0  194 6978.00000 7000.41172  0.32%     -    4s
     0     0 6999.68759    0  181 6978.00000 6999.68759  0.31%     -    4s
     0     0 6999.50079    0  180 6978.00000 6999.50079  0.31%     -    4s
     0     0 6982.54622    0   73 6978.00000 6982.54622  0.07%     -    4s
     0     0 6980.03708    0   58 6978.00000 6980.03708  0.03%     -    4s
     0     0 6979.70375    0   50 6978.00000 6979.70375  0.02%     -    4s
     0     0     cutoff    0      6978.00000 6978.00000  0.00%     -    4s

Cutting planes:
  Gomory: 269
  Lift-and-project: 6
  Cover: 39
  Implied bound: 17
  Clique: 1
  MIR: 163
  StrongCG: 13
  GUB cover: 213
  Zero half: 57
  RLT: 31
  Relax-and-lift: 4

Explored 1 nodes (3084 simplex iterations) in 4.95 seconds (7.12 work units)
Thread count was 8 (of 8 available processors)

Solution count 10: 6978 6977 6970 ... 6919

Optimal solution found (tolerance 0.00e+00)
Best objective 6.978000000000e+03, best bound 6.978000000000e+03, gap 0.0000%

Gurobi 9.5.1 (linux64) logging started Thu Mar 31 18:36:50 2022

Set parameter LogFile to value "../results/logs/log_2022_03_31_16_06.csv_4_250.log"
Gurobi Optimizer version 9.5.1 build v9.5.1rc2 (linux64)
Thread count: 8 physical cores, 8 logical processors, using up to 8 threads
Optimize a model with 1751427 rows, 1751426 columns and 20791056 nonzeros
Model fingerprint: 0xb96ab598
Variable types: 0 continuous, 1751426 integer (1751426 binary)
Coefficient statistics:
  Matrix range     [1e+00, 4e+00]
  Objective range  [1e+00, 1e+00]
  Bounds range     [1e+00, 1e+00]
  RHS range        [1e+00, 2e+02]
Found heuristic solution: objective -0.0000000
Presolve removed 308000 rows and 154000 columns (presolve time = 5s) ...
Presolve removed 317823 rows and 268447 columns (presolve time = 12s) ...
Presolve removed 317823 rows and 268450 columns (presolve time = 16s) ...
Presolve removed 317823 rows and 269275 columns (presolve time = 20s) ...
Presolve removed 317943 rows and 269397 columns (presolve time = 25s) ...
Presolve removed 317944 rows and 446891 columns (presolve time = 30s) ...
Presolve removed 317944 rows and 446891 columns (presolve time = 35s) ...
Presolve removed 673449 rows and 446892 columns (presolve time = 40s) ...
Presolve removed 673449 rows and 547001 columns (presolve time = 46s) ...
Presolve removed 673449 rows and 547001 columns (presolve time = 51s) ...
Presolve removed 673450 rows and 548384 columns (presolve time = 55s) ...
Presolve removed 673450 rows and 548384 columns (presolve time = 60s) ...
Presolve removed 674831 rows and 548385 columns (presolve time = 66s) ...
Presolve removed 674838 rows and 549515 columns (presolve time = 70s) ...
Presolve removed 675442 rows and 557415 columns (presolve time = 76s) ...
Presolve removed 675442 rows and 557415 columns (presolve time = 80s) ...
Presolve removed 679593 rows and 558027 columns (presolve time = 86s) ...
Presolve removed 679601 rows and 558035 columns (presolve time = 90s) ...
Presolve removed 679601 rows and 558035 columns (presolve time = 95s) ...
Presolve removed 679601 rows and 558035 columns (presolve time = 100s) ...
Presolve removed 679601 rows and 558035 columns (presolve time = 105s) ...
Presolve removed 679601 rows and 558035 columns (presolve time = 110s) ...
Presolve removed 679518 rows and 557952 columns
Presolve time: 112.62s
Presolved: 1071909 rows, 1193474 columns, 17483753 nonzeros
Variable types: 0 continuous, 1193474 integer (1149849 binary)
Found heuristic solution: objective 73.0000000

Deterministic concurrent LP optimizer: primal simplex, dual simplex, and barrier
Showing barrier log only...

Root barrier log...

Elapsed ordering time = 5s
Elapsed ordering time = 10s
Elapsed ordering time = 15s
Elapsed ordering time = 33s
Elapsed ordering time = 35s
Elapsed ordering time = 40s
Elapsed ordering time = 45s
Elapsed ordering time = 50s
Elapsed ordering time = 58s
Elapsed ordering time = 60s
Elapsed ordering time = 65s
Elapsed ordering time = 70s
Elapsed ordering time = 79s
Elapsed ordering time = 80s
Elapsed ordering time = 85s
Elapsed ordering time = 90s
Elapsed ordering time = 95s
Ordering time: 98.46s

Barrier statistics:
 Dense cols : 382
 AA' NZ     : 2.873e+07
 Factor NZ  : 4.100e+08 (roughly 4.0 GB of memory)
 Factor Ops : 3.942e+12 (roughly 12 seconds per iteration)
 Threads    : 6

Barrier performed 0 iterations in 258.57 seconds (200.91 work units)
Barrier solve interrupted - model solved by another algorithm

Concurrent spin time: 44.98s (can be avoided by choosing Method=3)

Solved with primal simplex

Root relaxation: objective 5.190860e+05, 417319 iterations, 138.09 seconds (83.28 work units)

    Nodes    |    Current Node    |     Objective Bounds      |     Work
 Expl Unexpl |  Obj  Depth IntInf | Incumbent    BestBd   Gap | It/Node Time

     0     0 519086.048    0 41087   73.00000 519086.048      -     -  279s
H    0     0                    136587.00000 519086.048   280%     -  287s
     0     0 497916.281    0 8821 136587.000 497916.281   265%     -  578s
H    0     0                    333477.00000 497916.281  49.3%     -  593s
     0     0 497754.900    0 8395 333477.000 497754.900  49.3%     -  604s
     0     0 497747.673    0 8398 333477.000 497747.673  49.3%     -  609s
     0     0 497746.971    0 8361 333477.000 497746.971  49.3%     -  614s
     0     0 495989.762    0 5212 333477.000 495989.762  48.7%     -  658s
H    0     0                    358778.00000 495989.762  38.2%     -  663s
H    0     0                    363040.00000 495989.762  36.6%     -  666s
     0     0 495638.444    0 4842 363040.000 495638.444  36.5%     -  672s
     0     0 495557.555    0 5018 363040.000 495557.555  36.5%     -  678s
     0     0 495549.224    0 5002 363040.000 495549.224  36.5%     -  683s
     0     0 495547.364    0 5013 363040.000 495547.364  36.5%     -  687s
     0     0 494949.821    0 2817 363040.000 494949.821  36.3%     -  728s
H    0     0                    363505.00000 494949.821  36.2%     -  793s
H    0     0                    493957.00000 494949.821  0.20%     -  804s
     0     0 494854.120    0 2458 493957.000 494854.120  0.18%     -  809s
     0     0 494841.007    0 2335 493957.000 494841.007  0.18%     -  814s
     0     0 494838.427    0 2339 493957.000 494838.427  0.18%     -  819s
     0     0 494729.014    0 1610 493957.000 494729.014  0.16%     -  845s
H    0     0                    493994.00000 494729.014  0.15%     -  854s
     0     0 494708.142    0 1621 493994.000 494708.142  0.14%     -  858s
     0     0 494705.289    0 1540 493994.000 494705.289  0.14%     -  863s
     0     0 494681.374    0 1392 493994.000 494681.374  0.14%     -  877s
H    0     0                    494566.00000 494681.374  0.02%     -  888s
     0     0 494676.997    0 1347 494566.000 494676.997  0.02%     -  891s
     0     0 494676.551    0 1347 494566.000 494676.551  0.02%     -  896s
     0     0 494661.035    0 1206 494566.000 494661.035  0.02%     -  908s
     0     0 494659.354    0 1227 494566.000 494659.354  0.02%     -  920s
     0     0 494651.241    0 1181 494566.000 494651.241  0.02%     -  933s
     0     0 494649.428    0 1202 494566.000 494649.428  0.02%     -  946s
     0     0 494646.396    0 1091 494566.000 494646.396  0.02%     -  960s
     0     0 494645.126    0 1087 494566.000 494645.126  0.02%     -  970s
     0     0 494643.547    0 1023 494566.000 494643.547  0.02%     -  984s
     0     0 494642.961    0 1038 494566.000 494642.961  0.02%     -  997s
     0     0 494641.224    0 1000 494566.000 494641.224  0.02%     - 1011s
     0     0 494641.224    0  913 494566.000 494641.224  0.02%     - 1323s
     0     2 494640.061    0  906 494566.000 494640.061  0.01%     - 1733s
     1     4 494639.462    1  889 494566.000 494639.462  0.01%  1180 1738s
     3     8 494637.431    2  937 494566.000 494637.431  0.01%   467 1756s
     7    16 494636.951    3  933 494566.000 494637.153  0.01%   237 1771s
    15    24 494636.409    4  928 494566.000 494636.409  0.01%   132 1798s
    23    32 494636.159    5  927 494566.000 494636.159  0.01%   103 1801s
    31    40 494635.337    6  914 494566.000 494635.701  0.01%  78.0 1815s
H   32    40                    494567.00000 494635.701  0.01%  75.6 1816s
    47    59 494633.287    8  917 494567.000 494635.701  0.01%  53.1 1841s
    58    89 494632.620    9  914 494567.000 494635.701  0.01%  45.0 1863s
    88   122 494629.499   11  898 494567.000 494635.701  0.01%  36.8 1910s
   121   223 494627.525   16  840 494567.000 494635.701  0.01%  31.8 1995s
   222   326 494624.130   25  811 494567.000 494635.701  0.01%  29.0 2082s
